; Insertion sort
(declare-datatypes (a)
  ((list (nil) (cons (head a) (tail (list a))))))
(define-fun-rec
  zelem
    ((x Int) (y (list Int))) Bool
    (match y
      (case nil false)
      (case (cons z ys) (or (= x z) (zelem x ys)))))
(define-fun-rec
  zdelete
    ((x Int) (y (list Int))) (list Int)
    (match y
      (case nil (as nil (list Int)))
      (case (cons z ys) (ite (= x z) ys (cons z (zdelete x ys))))))
(define-fun
  (par (a)
    (null
       ((x (list a))) Bool
       (match x
         (case nil true)
         (case (cons y z) false)))))
(define-fun-rec
  zisPermutation
    ((x (list Int)) (y (list Int))) Bool
    (match x
      (case nil (null y))
      (case (cons z xs)
        (and (zelem z y) (zisPermutation xs (zdelete z y))))))
(define-fun-rec
  insert2
    ((x Int) (y (list Int))) (list Int)
    (match y
      (case nil (cons x (as nil (list Int))))
      (case (cons z xs)
        (ite (<= x z) (cons x y) (cons z (insert2 x xs))))))
(define-fun-rec
  isort
    ((x (list Int))) (list Int)
    (match x
      (case nil (as nil (list Int)))
      (case (cons y xs) (insert2 y (isort xs)))))
(assert-not (forall ((x (list Int))) (zisPermutation (isort x) x)))
(check-sat)
